elements = 6;
candidates = 70;
requirements = [32, 4, 40, 70, 14, 1];
candidate_sets = [| 6, 0, 0, 0, 14, 0
	| 0, 0, 6, 0, 10, 0
	| 0, 0, 4, 0, 14, 0
	| 0, 0, 0, 6, 10, 0
	| 0, 0, 0, 4, 14, 0
	| 6, 0, 0, 0, 14, 0
	| 0, 0, 6, 0, 10, 0
	| 0, 0, 4, 0, 14, 0
	| 0, 0, 0, 6, 10, 0
	| 0, 0, 0, 4, 14, 0
	| 6, 0, 0, 0, 14, 0
	| 0, 0, 6, 0, 10, 0
	| 0, 0, 4, 0, 14, 0
	| 0, 0, 0, 6, 10, 0
	| 0, 0, 0, 4, 14, 0
	| 12, 0, 0, 0, 10, 0
	| 0, 0, 6, 0, 10, 0
	| 0, 0, 0, 6, 10, 0
	| 0, 0, 8, 0, 9, 0
	| 0, 0, 0, 8, 9, 0
	| 19, 0, 0, 0, 6, 0
	| 29, 4, 0, 0, 0, 0
	| 15, 0, 7, 0, 0, 0
	| 16, 0, 6, 0, 0, 0
	| 29, 0, 3, 0, 0, 0
	| 15, 0, 0, 7, 0, 0
	| 16, 0, 0, 6, 0, 0
	| 29, 0, 0, 3, 0, 0
	| 15, 0, 0, 0, 8, 0
	| 15, 0, 0, 0, 8, 0
	| 15, 0, 0, 0, 8, 0
	| 29, 4, 0, 0, 0, 0
	| 0, 4, 11, 0, 0, 0
	| 0, 4, 0, 11, 0, 0
	| 0, 0, 15, 0, 0, 0
	| 0, 0, 8, 0, 9, 0
	| 0, 0, 8, 0, 9, 0
	| 0, 0, 8, 0, 9, 0
	| 0, 0, 14, 0, 2, 0
	| 4, 0, 14, 0, 0, 0
	| 0, 0, 13, 0, 4, 0
	| 7, 0, 13, 0, 0, 0
	| 0, 0, 8, 0, 7, 1
	| 0, 0, 8, 0, 9, 0
	| 0, 0, 8, 5, 0, 0
	| 0, 0, 0, 15, 0, 0
	| 0, 0, 0, 8, 9, 0
	| 0, 0, 0, 8, 9, 0
	| 0, 0, 0, 8, 9, 0
	| 0, 0, 0, 14, 2, 0
	| 4, 0, 0, 14, 0, 0
	| 0, 0, 0, 13, 4, 0
	| 7, 0, 0, 13, 0, 0
	| 0, 0, 0, 8, 7, 1
	| 0, 0, 0, 8, 9, 0
	| 0, 0, 5, 8, 0, 0
	| 0, 0, 8, 5, 0, 0
	| 1, 4, 0, 0, 14, 1
	| 2, 2, 0, 0, 14, 1
	| 2, 0, 2, 0, 14, 1
	| 2, 0, 0, 2, 14, 1
	| 1, 4, 3, 0, 7, 1
	| 0, 0, 14, 0, 1, 1
	| 0, 2, 10, 0, 2, 1
	| 0, 0, 10, 1, 2, 1
	| 1, 0, 12, 0, 1, 1
	| 0, 0, 0, 14, 1, 1
	| 0, 2, 0, 10, 2, 1
	| 0, 0, 1, 10, 2, 1
	| 19, 0, 0, 4, 1, 1
	|];
candidate_weights = [15015,
	15021,
	15015,
	15021,
	15015,
	15016,
	15023,
	15017,
	15023,
	15017,
	15018,
	15024,
	15019,
	15024,
	15019,
	15015,
	15032,
	15032,
	15024,
	15024,
	15007,
	14998,
	15014,
	15012,
	15004,
	15014,
	15012,
	15004,
	15025,
	15026,
	15027,
	14998,
	15027,
	15027,
	15043,
	15021,
	15022,
	15023,
	15037,
	15031,
	15035,
	15031,
	15029,
	15024,
	15042,
	15043,
	15021,
	15022,
	15023,
	15037,
	15031,
	15035,
	15031,
	15029,
	15024,
	15042,
	15042,
	15009,
	15028,
	15034,
	15034,
	15015,
	15041,
	15034,
	15041,
	15046,
	15041,
	15034,
	15041,
	15024];
